NAME : portgen-28-9
COMMENT : portgen N=28, seed=9
TYPE : TSP
DIMENSION : 28
EDGE_WEIGHT_TYPE : EUC_2D
NODE_COORD_SECTION
1 700201 849072
2 490958 817370
3 588316 725976
4 42637 6036
5 418389 999104
6 845134 677053
7 248841 510193
8 132630 795628
9 456974 69028
10 350169 523528
11 25138 874444
12 907202 132077
13 19931 999382
14 242387 902061
15 728333 741534
16 211556 254227
17 357347 66086
18 45382 516643
19 938786 944370
20 955911 912249
21 367006 17454
22 986995 971032
23 760599 143410
24 34122 875585
25 583435 101222
26 998498 993848
27 990067 184034
28 783761 445974
